MKP10 Results:
BPSO1 Results:
7885 8021 8179 8179 8179 8179 8293 8293 8293 8293 8293 8293 8293 8293 8293 8293 8293 8293 8293 8293 8293 8293 8293 8293 8293 8293 8293 8293 8293 8293 8293 8293 8293 8293 8293 8293 8293 8293 8293 8293
7848 8294 8294 8318 8318 8318 8318 8318 8318 8318 8318 8318 8318 8318 8318 8318 8318 8318 8318 8318 8318 8318 8318 8318 8318 8318 8318 8318 8318 8324 8324 8324 8324 8324 8324 8324 8324 8324 8324 8324
7732 8115 8115 8182 8197 8197 8197 8197 8197 8197 8197 8197 8197 8197 8197 8197 8197 8197 8197 8197 8197 8197 8197 8197 8197 8197 8197 8197 8197 8197 8197 8197 8197 8197 8197 8197 8197 8197 8197 8197
7822 8310 8339 8339 8339 8339 8339 8366 8366 8366 8366 8366 8366 8366 8366 8366 8366 8366 8366 8366 8366 8366 8366 8366 8366 8366 8366 8366 8366 8366 8366 8366 8366 8366 8366 8366 8366 8366 8366 8366
7957 8299 8299 8365 8365 8365 8370 8370 8370 8370 8370 8370 8370 8370 8370 8370 8370 8370 8370 8370 8370 8370 8370 8370 8370 8370 8370 8370 8370 8370 8370 8370 8370 8370 8370 8370 8370 8370 8370 8370
7765 8180 8180 8180 8180 8180 8180 8180 8180 8228 8228 8228 8228 8228 8228 8228 8228 8228 8228 8228 8228 8228 8228 8228 8228 8228 8228 8228 8228 8228 8228 8228 8228 8228 8228 8228 8228 8228 8228 8228
8057 8176 8318 8318 8318 8318 8318 8331 8331 8331 8331 8331 8331 8331 8331 8331 8331 8331 8331 8331 8331 8331 8331 8331 8331 8331 8331 8331 8331 8331 8331 8331 8331 8331 8331 8331 8331 8331 8331 8331
7675 7934 8019 8104 8104 8135 8279 8293 8293 8293 8293 8293 8293 8293 8293 8293 8293 8293 8293 8293 8293 8293 8293 8293 8293 8293 8293 8298 8298 8298 8298 8298 8298 8298 8298 8298 8298 8314 8314 8314
7543 7912 8138 8138 8138 8138 8162 8181 8181 8181 8181 8181 8181 8181 8181 8181 8181 8181 8181 8181 8181 8181 8181 8181 8181 8181 8181 8181 8181 8181 8181 8181 8181 8181 8181 8181 8181 8181 8181 8181
7989 7989 8104 8281 8281 8281 8281 8281 8281 8281 8281 8281 8281 8281 8281 8281 8281 8281 8281 8281 8281 8281 8281 8281 8281 8281 8281 8281 8281 8281 8281 8281 8281 8281 8281 8281 8281 8281 8281 8281
8065 8288 8288 8295 8295 8295 8295 8295 8295 8295 8354 8354 8354 8354 8354 8367 8367 8367 8367 8367 8367 8367 8367 8367 8367 8367 8367 8367 8367 8367 8367 8367 8367 8367 8367 8367 8367 8367 8367 8367
7971 8152 8295 8295 8295 8295 8295 8295 8295 8295 8295 8295 8295 8295 8295 8312 8312 8312 8312 8312 8312 8312 8312 8312 8312 8312 8312 8312 8312 8312 8312 8312 8312 8312 8312 8312 8312 8312 8312 8312
7676 8177 8274 8274 8274 8274 8274 8274 8274 8339 8339 8339 8339 8339 8339 8339 8339 8339 8339 8339 8339 8339 8339 8339 8339 8339 8339 8339 8339 8339 8339 8339 8339 8339 8339 8339 8339 8339 8339 8339
7714 8120 8120 8120 8220 8220 8220 8220 8283 8283 8344 8344 8344 8344 8344 8344 8344 8344 8344 8344 8344 8344 8344 8344 8344 8344 8344 8344 8344 8344 8344 8344 8344 8344 8344 8344 8344 8344 8344 8344
8048 8110 8110 8184 8216 8268 8271 8326 8326 8326 8326 8326 8426 8426 8426 8426 8426 8426 8426 8426 8426 8426 8426 8426 8426 8426 8426 8426 8426 8426 8426 8426 8426 8426 8426 8426 8426 8426 8426 8426
7847 8199 8199 8199 8208 8230 8230 8293 8293 8398 8398 8398 8398 8398 8398 8398 8398 8398 8398 8398 8398 8398 8398 8398 8398 8398 8398 8398 8398 8398 8398 8398 8398 8398 8398 8398 8398 8398 8398 8398
7862 8013 8249 8249 8249 8249 8249 8249 8249 8249 8249 8249 8249 8249 8249 8249 8249 8249 8249 8249 8249 8249 8249 8249 8249 8249 8249 8249 8249 8249 8249 8249 8249 8249 8249 8249 8249 8249 8249 8249
7654 8036 8208 8208 8208 8208 8208 8208 8208 8208 8208 8208 8208 8208 8208 8208 8208 8208 8208 8208 8208 8208 8208 8208 8208 8208 8208 8208 8208 8208 8208 8208 8208 8208 8208 8208 8208 8208 8208 8208
7497 8053 8335 8335 8335 8335 8335 8335 8335 8335 8335 8335 8335 8370 8370 8370 8370 8370 8370 8370 8370 8370 8370 8370 8370 8370 8370 8370 8370 8370 8370 8370 8370 8370 8370 8370 8370 8370 8370 8370
7694 8245 8245 8272 8281 8281 8281 8281 8281 8281 8281 8281 8281 8281 8281 8281 8281 8281 8281 8281 8281 8281 8281 8281 8281 8281 8281 8281 8281 8281 8281 8281 8281 8281 8281 8281 8281 8281 8281 8281
7829 8048 8155 8230 8281 8281 8281 8281 8281 8305 8305 8305 8305 8305 8305 8305 8305 8305 8305 8412 8412 8412 8412 8412 8412 8412 8412 8412 8412 8412 8412 8412 8412 8412 8412 8412 8412 8412 8412 8412
8017 8086 8195 8195 8195 8195 8228 8228 8228 8228 8228 8228 8228 8228 8228 8228 8228 8228 8228 8228 8228 8228 8228 8228 8228 8228 8349 8349 8349 8349 8349 8349 8349 8349 8349 8349 8349 8349 8349 8349
7939 8020 8191 8191 8218 8316 8316 8316 8316 8316 8316 8316 8316 8316 8316 8316 8316 8316 8316 8316 8316 8316 8316 8316 8316 8316 8316 8316 8316 8316 8316 8316 8316 8316 8316 8316 8316 8316 8316 8316
7866 8230 8230 8291 8291 8291 8291 8291 8291 8291 8291 8291 8291 8291 8291 8291 8291 8291 8328 8328 8328 8328 8328 8328 8328 8328 8328 8328 8328 8328 8328 8328 8328 8328 8328 8328 8328 8328 8328 8328
8074 8222 8230 8294 8294 8294 8404 8404 8404 8404 8404 8404 8404 8404 8404 8404 8404 8404 8404 8404 8404 8404 8404 8404 8404 8404 8404 8404 8404 8404 8404 8404 8404 8404 8404 8404 8404 8404 8404 8404
7974 8035 8101 8307 8307 8307 8307 8369 8369 8369 8369 8369 8369 8369 8369 8369 8369 8369 8369 8369 8369 8369 8369 8369 8369 8369 8369 8369 8369 8369 8369 8369 8369 8369 8369 8369 8369 8369 8369 8369
8001 8133 8199 8267 8293 8332 8332 8332 8332 8332 8332 8332 8332 8332 8332 8332 8332 8332 8332 8332 8332 8332 8332 8332 8332 8332 8332 8332 8332 8332 8332 8332 8332 8332 8332 8332 8332 8332 8332 8332
7993 7993 8147 8147 8332 8332 8332 8332 8332 8336 8336 8397 8397 8397 8397 8397 8397 8397 8397 8397 8397 8397 8397 8397 8397 8397 8397 8397 8397 8397 8397 8397 8397 8397 8397 8397 8397 8397 8397 8397
8007 8192 8240 8240 8240 8240 8240 8240 8342 8342 8342 8342 8342 8342 8342 8342 8342 8342 8342 8342 8342 8342 8342 8342 8342 8342 8342 8342 8342 8342 8342 8342 8342 8342 8342 8342 8342 8342 8342 8342
7970 8056 8148 8148 8177 8322 8329 8329 8335 8335 8335 8335 8335 8335 8335 8335 8335 8335 8335 8335 8335 8335 8335 8335 8335 8335 8335 8337 8337 8337 8337 8337 8337 8337 8337 8337 8337 8337 8337 8337

GA1 Results:
7830 8142 8270 8443 8462 8462 8462 8517 8517 8618 8618 8618 8636 8646 8690 8690 8690 8690 8690 8690 8690 8698 8698 8698 8698 8698 8698 8698 8698 8698 8698 8698 8698 8698 8698 8698 8698 8698 8698 8698
7592 8161 8232 8459 8459 8516 8611 8611 8611 8611 8611 8611 8664 8664 8675 8675 8691 8721 8721 8721 8721 8721 8721 8721 8721 8721 8721 8721 8721 8721 8721 8721 8721 8721 8721 8721 8721 8721 8721 8721
8050 8252 8362 8429 8432 8553 8590 8590 8602 8610 8610 8610 8653 8653 8658 8673 8673 8697 8715 8715 8715 8715 8715 8721 8721 8721 8721 8721 8721 8721 8721 8721 8721 8721 8721 8721 8721 8721 8721 8721
7854 8346 8429 8429 8429 8517 8517 8517 8555 8556 8556 8568 8582 8629 8629 8647 8692 8692 8694 8694 8694 8694 8694 8694 8694 8694 8694 8694 8694 8694 8694 8694 8694 8694 8694 8694 8694 8694 8694 8694
7830 8061 8329 8383 8453 8453 8466 8609 8609 8609 8609 8609 8609 8609 8675 8677 8677 8677 8677 8681 8695 8695 8695 8695 8695 8701 8701 8701 8701 8701 8701 8701 8701 8701 8701 8701 8701 8701 8701 8701
7809 8145 8274 8319 8319 8385 8470 8518 8549 8566 8574 8590 8616 8616 8653 8653 8653 8653 8663 8696 8696 8722 8722 8722 8722 8722 8722 8722 8722 8722 8722 8722 8722 8722 8722 8722 8722 8722 8722 8722
8302 8439 8483 8606 8606 8606 8606 8606 8612 8612 8612 8612 8628 8653 8675 8675 8675 8675 8675 8675 8675 8675 8675 8675 8675 8675 8675 8675 8675 8675 8675 8675 8675 8675 8675 8675 8675 8675 8675 8675
7960 7997 8235 8338 8363 8392 8401 8442 8512 8582 8582 8582 8582 8625 8626 8629 8629 8629 8669 8669 8692 8696 8696 8696 8696 8696 8696 8696 8696 8696 8720 8720 8720 8720 8720 8720 8720 8720 8720 8720
7673 8358 8358 8432 8436 8436 8530 8530 8530 8530 8530 8547 8580 8604 8604 8620 8620 8634 8634 8634 8665 8669 8693 8693 8693 8720 8720 8720 8720 8720 8720 8720 8720 8720 8720 8720 8720 8720 8720 8720
8035 8153 8213 8345 8378 8470 8521 8537 8560 8567 8586 8586 8621 8621 8660 8660 8675 8675 8675 8678 8678 8678 8684 8684 8684 8684 8684 8703 8703 8703 8703 8703 8703 8703 8703 8703 8703 8703 8703 8703
8126 8379 8392 8416 8453 8453 8518 8518 8518 8591 8591 8591 8644 8644 8644 8657 8657 8702 8702 8713 8713 8713 8713 8713 8713 8713 8713 8713 8713 8713 8713 8713 8713 8713 8713 8713 8713 8713 8713 8713
7972 8237 8467 8489 8489 8593 8593 8593 8604 8604 8604 8604 8604 8650 8650 8669 8669 8669 8669 8694 8694 8694 8701 8701 8701 8701 8701 8701 8701 8701 8701 8701 8701 8701 8701 8701 8701 8701 8701 8701
8007 8141 8294 8365 8409 8444 8444 8444 8465 8511 8511 8557 8572 8619 8621 8621 8621 8621 8621 8621 8621 8627 8627 8627 8627 8627 8627 8627 8627 8627 8641 8641 8641 8641 8641 8641 8641 8641 8641 8641
7680 8226 8290 8439 8474 8597 8597 8597 8597 8597 8597 8597 8606 8639 8657 8657 8657 8657 8698 8698 8698 8698 8698 8722 8722 8722 8722 8722 8722 8722 8722 8722 8722 8722 8722 8722 8722 8722 8722 8722
7472 8023 8374 8503 8503 8503 8524 8524 8524 8602 8602 8607 8607 8616 8616 8628 8645 8645 8695 8704 8704 8704 8704 8704 8704 8704 8704 8704 8704 8704 8704 8704 8704 8704 8704 8704 8704 8704 8704 8704
7249 8081 8131 8361 8411 8452 8510 8550 8589 8589 8645 8645 8645 8645 8645 8656 8656 8680 8684 8684 8684 8684 8684 8684 8685 8687 8687 8687 8687 8687 8687 8687 8687 8687 8687 8687 8687 8687 8687 8687
7454 8157 8384 8384 8387 8510 8510 8517 8528 8591 8591 8598 8598 8601 8657 8657 8657 8657 8657 8666 8683 8683 8701 8701 8701 8701 8701 8701 8701 8701 8701 8701 8701 8701 8701 8701 8701 8701 8701 8701
7962 8202 8296 8325 8465 8465 8530 8551 8551 8599 8629 8629 8629 8629 8650 8650 8662 8674 8674 8683 8683 8683 8683 8684 8684 8684 8703 8703 8703 8703 8703 8703 8703 8703 8703 8703 8703 8703 8703 8703
7369 8160 8180 8285 8416 8420 8502 8502 8622 8622 8628 8652 8654 8654 8685 8685 8685 8685 8685 8685 8685 8685 8685 8685 8694 8700 8700 8700 8700 8700 8700 8700 8700 8700 8700 8700 8700 8700 8700 8700
7941 7969 8193 8353 8486 8486 8486 8542 8645 8645 8645 8674 8674 8674 8674 8674 8674 8674 8675 8675 8675 8679 8679 8683 8683 8683 8683 8683 8683 8683 8683 8683 8683 8683 8683 8683 8683 8683 8683 8683
7969 8175 8459 8459 8459 8527 8527 8554 8569 8569 8581 8585 8648 8669 8669 8669 8669 8669 8669 8675 8675 8675 8675 8698 8698 8698 8698 8699 8699 8699 8699 8699 8699 8699 8699 8699 8699 8699 8699 8699
7963 8256 8321 8472 8472 8472 8491 8607 8607 8607 8641 8650 8660 8665 8671 8671 8671 8677 8678 8678 8678 8678 8682 8695 8695 8722 8722 8722 8722 8722 8722 8722 8722 8722 8722 8722 8722 8722 8722 8722
7889 8143 8302 8442 8448 8608 8608 8608 8608 8609 8609 8609 8609 8622 8622 8622 8622 8622 8624 8671 8671 8698 8698 8698 8698 8698 8698 8698 8698 8698 8698 8698 8698 8698 8698 8698 8698 8698 8698 8698
7792 8193 8193 8374 8431 8472 8498 8567 8567 8630 8630 8637 8637 8653 8688 8691 8722 8722 8722 8722 8722 8722 8722 8722 8722 8722 8722 8722 8722 8722 8722 8722 8722 8722 8722 8722 8722 8722 8722 8722
7812 8271 8364 8382 8472 8472 8480 8591 8596 8596 8618 8618 8675 8675 8675 8675 8675 8676 8722 8722 8722 8722 8722 8722 8722 8722 8722 8722 8722 8722 8722 8722 8722 8722 8722 8722 8722 8722 8722 8722
7483 8029 8222 8306 8310 8387 8453 8453 8453 8558 8596 8641 8641 8641 8646 8646 8670 8670 8693 8693 8698 8700 8700 8700 8700 8700 8700 8700 8700 8700 8700 8700 8700 8700 8700 8700 8700 8700 8700 8700
7770 7976 8268 8292 8422 8453 8530 8567 8567 8567 8567 8599 8599 8601 8619 8621 8621 8629 8629 8642 8642 8642 8642 8642 8642 8642 8642 8642 8642 8642 8642 8642 8642 8642 8642 8642 8642 8642 8642 8642
7869 8272 8425 8425 8553 8553 8553 8553 8553 8622 8622 8622 8622 8632 8632 8632 8632 8681 8687 8687 8687 8687 8687 8687 8687 8687 8687 8687 8687 8687 8687 8687 8687 8687 8687 8687 8687 8687 8687 8687
7664 8019 8177 8274 8512 8512 8518 8520 8553 8563 8629 8629 8629 8629 8629 8629 8629 8629 8629 8643 8666 8666 8667 8667 8691 8697 8697 8697 8697 8697 8697 8697 8697 8697 8697 8697 8697 8697 8697 8697
7793 8175 8240 8548 8548 8548 8548 8548 8609 8609 8648 8648 8648 8693 8693 8693 8693 8693 8695 8695 8722 8722 8722 8722 8722 8722 8722 8722 8722 8722 8722 8722 8722 8722 8722 8722 8722 8722 8722 8722

BPSO2 Results:
8042 8142 8217 8246 8246 8248 8248 8248 8248 8248 8325 8325 8325 8325 8325 8325 8325 8325 8325 8325 8325 8325 8325 8325 8325 8325 8325 8325 8450 8450 8450 8450 8450 8450 8450 8450 8450 8450 8450 8450
8000 8313 8313 8313 8313 8313 8313 8313 8313 8423 8423 8423 8423 8423 8423 8423 8423 8423 8423 8423 8423 8423 8423 8423 8423 8423 8423 8423 8423 8423 8423 8423 8423 8423 8423 8423 8423 8423 8423 8423
7644 8067 8109 8226 8248 8248 8270 8270 8270 8308 8308 8308 8308 8308 8308 8308 8308 8308 8308 8308 8308 8308 8308 8308 8308 8308 8308 8308 8308 8308 8308 8308 8308 8308 8308 8308 8308 8308 8308 8308
7454 8015 8241 8304 8304 8395 8395 8395 8395 8395 8395 8395 8395 8395 8395 8395 8395 8395 8395 8395 8395 8395 8395 8395 8395 8395 8395 8395 8395 8395 8395 8395 8395 8395 8395 8395 8395 8395 8395 8395
7879 8254 8254 8272 8272 8272 8446 8446 8446 8446 8446 8446 8446 8446 8446 8446 8446 8446 8446 8446 8446 8446 8446 8446 8446 8446 8446 8446 8446 8446 8446 8446 8446 8446 8446 8446 8446 8446 8446 8446
7501 8163 8187 8203 8367 8367 8367 8404 8404 8404 8404 8404 8404 8404 8404 8404 8404 8404 8404 8404 8404 8404 8404 8404 8404 8404 8404 8404 8404 8404 8404 8404 8404 8404 8404 8404 8404 8404 8404 8404
8047 8114 8168 8309 8309 8309 8309 8309 8309 8309 8309 8309 8309 8309 8309 8309 8309 8309 8309 8309 8309 8309 8309 8309 8309 8309 8309 8309 8309 8309 8309 8309 8309 8309 8309 8309 8309 8309 8309 8309
7917 8122 8163 8176 8249 8249 8276 8276 8276 8276 8276 8276 8276 8378 8378 8378 8378 8378 8378 8378 8378 8378 8378 8378 8378 8378 8378 8378 8378 8378 8378 8378 8378 8378 8378 8378 8378 8378 8378 8378
7765 8166 8254 8254 8254 8254 8254 8288 8288 8288 8288 8288 8288 8288 8288 8288 8288 8288 8288 8288 8288 8288 8288 8288 8288 8288 8288 8288 8288 8288 8288 8288 8288 8288 8288 8288 8288 8288 8288 8288
7897 8136 8187 8187 8319 8319 8319 8319 8319 8319 8319 8353 8353 8353 8353 8353 8353 8353 8353 8353 8353 8353 8353 8353 8353 8353 8353 8353 8353 8353 8353 8353 8353 8353 8353 8353 8353 8353 8353 8353
7506 8241 8241 8241 8241 8241 8272 8272 8272 8272 8272 8272 8272 8272 8272 8272 8272 8272 8272 8272 8272 8272 8272 8272 8272 8272 8272 8272 8272 8272 8272 8272 8272 8272 8272 8272 8272 8272 8272 8272
7692 8248 8248 8378 8378 8378 8378 8378 8378 8378 8378 8378 8378 8378 8378 8378 8408 8408 8408 8408 8408 8408 8408 8408 8408 8408 8408 8408 8408 8408 8408 8408 8408 8408 8408 8408 8408 8408 8408 8408
7837 8374 8374 8419 8419 8467 8467 8467 8467 8467 8467 8467 8467 8467 8467 8467 8467 8467 8467 8467 8467 8467 8467 8467 8467 8467 8467 8467 8467 8467 8467 8467 8467 8467 8467 8467 8467 8467 8467 8467
7592 8162 8311 8341 8341 8341 8341 8341 8341 8341 8341 8341 8341 8341 8373 8373 8373 8373 8373 8373 8373 8373 8373 8373 8373 8373 8373 8373 8373 8373 8373 8373 8373 8373 8373 8373 8373 8373 8373 8373
7647 8167 8395 8395 8395 8395 8450 8450 8450 8450 8450 8450 8450 8450 8450 8450 8450 8450 8450 8450 8450 8450 8450 8450 8450 8450 8450 8450 8450 8450 8450 8450 8450 8450 8450 8450 8450 8450 8450 8450
7872 7968 8312 8312 8312 8312 8312 8312 8318 8318 8318 8318 8318 8318 8318 8318 8318 8318 8318 8318 8318 8318 8318 8318 8318 8318 8318 8318 8318 8318 8318 8318 8318 8318 8318 8318 8318 8318 8318 8318
7762 8342 8342 8342 8342 8342 8342 8342 8393 8393 8393 8393 8393 8393 8393 8393 8393 8393 8393 8393 8393 8393 8393 8393 8393 8393 8393 8393 8393 8393 8393 8393 8393 8393 8393 8393 8393 8393 8393 8393
7886 8232 8524 8524 8524 8524 8524 8524 8524 8524 8524 8524 8524 8524 8524 8524 8524 8524 8524 8524 8524 8524 8524 8524 8524 8524 8524 8524 8524 8524 8524 8524 8524 8524 8524 8524 8524 8524 8524 8524
8005 8163 8266 8266 8266 8266 8266 8300 8400 8400 8400 8400 8400 8400 8400 8400 8400 8400 8400 8400 8400 8400 8400 8400 8400 8400 8400 8400 8400 8400 8400 8400 8400 8400 8400 8400 8400 8400 8400 8400
7923 8103 8285 8300 8300 8302 8302 8302 8331 8331 8331 8331 8331 8331 8331 8331 8331 8331 8331 8331 8331 8331 8331 8331 8331 8331 8331 8331 8331 8331 8331 8331 8331 8331 8331 8331 8331 8331 8331 8331
7952 8099 8156 8156 8270 8280 8280 8280 8280 8280 8280 8280 8280 8280 8280 8280 8280 8280 8280 8280 8280 8280 8280 8280 8280 8280 8280 8280 8280 8280 8280 8280 8280 8280 8280 8280 8280 8280 8280 8280
7574 8167 8191 8191 8217 8294 8294 8294 8390 8390 8390 8390 8390 8390 8390 8390 8390 8390 8390 8390 8390 8390 8390 8390 8390 8390 8390 8390 8390 8390 8390 8390 8390 8390 8390 8390 8390 8390 8390 8390
7887 8181 8234 8234 8234 8234 8234 8234 8234 8234 8234 8234 8234 8298 8298 8298 8298 8298 8298 8298 8298 8298 8298 8298 8298 8298 8298 8298 8298 8298 8298 8298 8298 8298 8298 8298 8298 8298 8298 8298
7930 8157 8167 8267 8267 8267 8267 8359 8359 8359 8359 8359 8359 8359 8359 8359 8359 8359 8359 8359 8359 8359 8359 8359 8359 8359 8359 8359 8359 8359 8359 8359 8359 8359 8359 8359 8359 8359 8359 8359
7844 8163 8163 8164 8298 8304 8304 8308 8308 8308 8308 8308 8308 8308 8308 8308 8308 8308 8308 8308 8308 8308 8308 8308 8308 8308 8308 8308 8308 8308 8308 8308 8308 8308 8308 8308 8308 8308 8308 8308
7899 7992 8019 8112 8184 8184 8184 8184 8184 8184 8189 8189 8189 8189 8189 8189 8189 8189 8189 8189 8189 8189 8189 8189 8189 8189 8189 8189 8189 8189 8189 8189 8189 8189 8189 8189 8189 8189 8189 8189
8097 8097 8097 8132 8132 8220 8220 8220 8220 8220 8220 8220 8220 8220 8220 8220 8220 8220 8220 8220 8220 8220 8220 8220 8220 8220 8220 8220 8220 8220 8220 8220 8220 8220 8220 8220 8220 8220 8220 8220
8088 8143 8143 8245 8335 8335 8335 8335 8335 8335 8335 8335 8335 8335 8335 8335 8335 8335 8335 8335 8335 8335 8335 8335 8335 8335 8335 8335 8335 8335 8335 8335 8335 8335 8335 8335 8335 8335 8335 8335
8032 8136 8136 8136 8166 8171 8171 8273 8273 8273 8273 8273 8306 8306 8306 8306 8306 8306 8306 8306 8306 8306 8306 8306 8306 8306 8306 8306 8306 8306 8306 8306 8306 8306 8306 8306 8306 8306 8306 8306
7912 8201 8317 8317 8317 8320 8320 8320 8320 8320 8467 8467 8467 8467 8467 8467 8467 8467 8467 8467 8467 8467 8467 8467 8467 8467 8467 8467 8467 8467 8467 8467 8467 8467 8467 8467 8467 8467 8467 8467

GA2 Results:
8096 8216 8338 8401 8401 8407 8460 8499 8499 8541 8573 8595 8595 8665 8665 8665 8684 8684 8684 8684 8684 8684 8684 8684 8684 8684 8684 8684 8684 8684 8684 8684 8684 8684 8684 8684 8684 8684 8684 8684
7654 8166 8330 8440 8472 8505 8550 8550 8550 8557 8574 8574 8574 8602 8602 8602 8602 8620 8623 8623 8623 8633 8633 8683 8683 8683 8684 8684 8684 8684 8684 8684 8684 8684 8684 8684 8684 8684 8684 8684
7904 8255 8450 8450 8450 8450 8453 8453 8557 8579 8579 8627 8627 8627 8627 8627 8627 8627 8627 8630 8630 8679 8679 8679 8679 8679 8679 8679 8679 8679 8679 8679 8679 8679 8679 8679 8679 8679 8679 8679
8150 8350 8399 8421 8464 8530 8571 8600 8654 8654 8654 8657 8669 8676 8676 8682 8682 8682 8682 8682 8682 8682 8682 8682 8682 8682 8682 8682 8682 8682 8682 8682 8682 8682 8682 8682 8682 8682 8682 8682
7696 8120 8394 8545 8545 8556 8576 8576 8581 8600 8601 8601 8601 8601 8601 8637 8637 8637 8637 8637 8670 8670 8670 8679 8679 8679 8679 8679 8693 8693 8693 8693 8693 8693 8693 8693 8720 8720 8720 8720
8203 8305 8310 8310 8411 8524 8524 8524 8524 8524 8524 8550 8574 8574 8574 8649 8649 8649 8649 8649 8649 8649 8649 8649 8649 8649 8650 8650 8684 8684 8684 8684 8684 8684 8684 8684 8684 8684 8684 8684
7866 8187 8296 8296 8445 8467 8467 8467 8467 8502 8525 8527 8527 8559 8565 8565 8567 8592 8592 8634 8640 8640 8650 8650 8660 8662 8662 8665 8665 8665 8665 8665 8665 8665 8665 8665 8665 8665 8665 8665
7680 8292 8362 8367 8373 8373 8396 8435 8530 8530 8535 8535 8535 8535 8538 8538 8556 8585 8585 8608 8608 8615 8615 8615 8615 8615 8615 8615 8615 8615 8615 8615 8615 8615 8615 8615 8615 8615 8615 8615
8022 8199 8303 8389 8389 8463 8471 8471 8487 8522 8522 8528 8528 8528 8531 8574 8574 8574 8574 8613 8623 8625 8625 8625 8625 8633 8633 8633 8643 8673 8679 8679 8679 8679 8679 8679 8679 8679 8679 8679
7787 8252 8302 8384 8445 8479 8552 8629 8629 8629 8629 8629 8629 8629 8633 8708 8708 8708 8708 8708 8708 8708 8708 8708 8708 8708 8708 8708 8708 8708 8708 8708 8708 8708 8708 8708 8708 8708 8708 8708
7917 8082 8291 8306 8350 8350 8363 8411 8411 8411 8436 8469 8485 8485 8512 8564 8595 8595 8621 8680 8680 8680 8680 8680 8680 8680 8680 8680 8680 8680 8680 8680 8680 8685 8685 8685 8685 8685 8685 8685
8125 8260 8294 8344 8393 8409 8425 8431 8445 8464 8543 8543 8543 8543 8543 8562 8618 8618 8618 8618 8618 8618 8618 8667 8667 8667 8667 8667 8667 8667 8667 8667 8681 8683 8683 8683 8683 8683 8683 8683
8216 8282 8386 8408 8408 8459 8459 8459 8475 8508 8544 8550 8558 8605 8638 8638 8638 8638 8638 8684 8684 8684 8684 8684 8684 8684 8684 8684 8684 8684 8684 8684 8684 8684 8684 8684 8684 8703 8703 8703
8171 8299 8323 8330 8430 8547 8602 8608 8608 8608 8608 8608 8653 8653 8653 8653 8666 8678 8678 8697 8697 8697 8697 8697 8697 8697 8697 8697 8697 8697 8697 8697 8697 8697 8697 8697 8697 8697 8697 8697
7843 8196 8247 8451 8451 8462 8462 8462 8511 8539 8577 8577 8577 8577 8608 8608 8616 8616 8616 8616 8616 8624 8624 8624 8638 8638 8638 8673 8673 8673 8673 8673 8673 8673 8673 8673 8673 8673 8673 8673
7915 8402 8469 8469 8469 8469 8536 8543 8550 8570 8617 8626 8632 8632 8657 8657 8657 8657 8657 8657 8665 8665 8679 8679 8679 8679 8679 8679 8679 8679 8679 8679 8679 8679 8679 8679 8679 8679 8679 8679
8034 8310 8443 8538 8538 8538 8538 8538 8572 8572 8572 8572 8607 8607 8620 8620 8638 8648 8648 8648 8648 8655 8678 8679 8679 8679 8684 8684 8684 8684 8684 8684 8684 8684 8684 8684 8684 8684 8684 8684
8207 8275 8307 8326 8453 8453 8453 8453 8466 8466 8523 8523 8538 8578 8578 8638 8638 8638 8643 8643 8643 8643 8643 8643 8643 8643 8659 8659 8659 8659 8659 8659 8659 8665 8665 8665 8665 8665 8665 8665
8161 8161 8216 8291 8358 8449 8467 8546 8546 8546 8630 8656 8656 8656 8657 8690 8690 8690 8690 8690 8692 8692 8694 8694 8694 8694 8694 8694 8694 8694 8694 8694 8694 8694 8694 8694 8694 8694 8694 8694
8027 8368 8491 8491 8491 8491 8491 8581 8581 8581 8593 8593 8642 8657 8657 8657 8657 8657 8662 8662 8676 8696 8696 8696 8722 8722 8722 8722 8722 8722 8722 8722 8722 8722 8722 8722 8722 8722 8722 8722
8186 8256 8286 8426 8444 8499 8535 8535 8535 8587 8587 8594 8594 8594 8594 8594 8594 8594 8594 8635 8635 8635 8635 8635 8635 8654 8654 8654 8654 8654 8654 8658 8658 8658 8658 8658 8658 8658 8658 8658
7473 8242 8270 8380 8465 8465 8477 8520 8599 8599 8599 8599 8684 8684 8684 8684 8684 8703 8703 8703 8703 8703 8703 8703 8703 8703 8703 8703 8703 8703 8703 8703 8703 8703 8703 8703 8703 8703 8703 8703
8115 8143 8447 8447 8551 8551 8572 8590 8590 8590 8590 8675 8675 8675 8675 8675 8683 8684 8684 8684 8684 8684 8684 8684 8684 8684 8684 8684 8684 8684 8684 8684 8684 8684 8684 8684 8684 8684 8684 8684
7700 8327 8333 8425 8426 8546 8546 8546 8546 8563 8601 8601 8633 8633 8633 8634 8634 8634 8657 8665 8706 8706 8706 8706 8706 8706 8706 8706 8722 8722 8722 8722 8722 8722 8722 8722 8722 8722 8722 8722
8202 8300 8300 8300 8389 8389 8389 8389 8418 8476 8476 8476 8479 8480 8519 8522 8598 8598 8598 8598 8656 8656 8656 8656 8660 8660 8660 8660 8660 8660 8660 8660 8660 8660 8660 8660 8660 8660 8660 8660
7976 8261 8384 8403 8403 8437 8533 8540 8540 8540 8565 8598 8598 8598 8598 8598 8598 8610 8614 8614 8614 8614 8641 8641 8641 8641 8641 8641 8641 8646 8646 8646 8675 8679 8679 8679 8679 8679 8679 8679
7854 8158 8320 8320 8398 8524 8524 8526 8545 8599 8599 8599 8626 8626 8626 8631 8631 8631 8631 8631 8631 8631 8631 8631 8631 8631 8631 8651 8651 8651 8651 8651 8651 8651 8651 8651 8651 8651 8651 8651
7763 8323 8368 8434 8520 8520 8589 8589 8589 8589 8591 8591 8630 8630 8684 8684 8684 8688 8688 8688 8688 8688 8688 8693 8693 8693 8693 8693 8693 8693 8693 8693 8693 8693 8693 8693 8693 8693 8693 8693
8149 8401 8489 8489 8512 8512 8517 8573 8583 8583 8583 8583 8583 8595 8599 8669 8669 8669 8669 8701 8701 8701 8701 8701 8701 8701 8701 8701 8701 8701 8701 8701 8701 8701 8701 8701 8701 8701 8701 8701
8030 8295 8347 8418 8495 8495 8495 8495 8546 8574 8574 8581 8581 8629 8629 8629 8629 8637 8671 8698 8698 8698 8698 8698 8698 8698 8698 8698 8698 8698 8698 8698 8698 8698 8698 8698 8698 8698 8698 8698

BPSO3 Results:
6865 7829 7840 7840 7840 7840 7840 8116 8220 8220 8220 8220 8220 8220 8285 8285 8285 8285 8285 8285 8306 8306 8306 8306 8306 8306 8306 8306 8306 8306 8306 8306 8306 8306 8306 8306 8306 8306 8306 8306
7645 8041 8183 8183 8183 8183 8183 8183 8250 8250 8250 8250 8250 8250 8250 8250 8250 8250 8250 8250 8250 8250 8250 8250 8250 8250 8250 8250 8250 8250 8250 8250 8250 8250 8250 8250 8250 8250 8250 8250
7415 7791 7993 8124 8124 8224 8224 8224 8224 8224 8281 8281 8281 8281 8281 8286 8286 8286 8286 8286 8286 8286 8286 8286 8286 8286 8286 8286 8286 8286 8286 8286 8286 8286 8286 8286 8286 8286 8286 8286
7404 8017 8209 8209 8209 8209 8209 8209 8209 8209 8209 8209 8224 8224 8310 8310 8310 8310 8310 8310 8310 8310 8310 8310 8310 8310 8310 8310 8310 8310 8310 8310 8310 8310 8310 8310 8310 8310 8310 8310
7287 7441 8010 8020 8052 8084 8230 8230 8273 8273 8273 8273 8273 8273 8273 8273 8273 8273 8273 8273 8273 8273 8273 8273 8273 8273 8273 8273 8273 8273 8273 8273 8273 8273 8273 8273 8273 8273 8273 8273
7720 8002 8002 8002 8002 8108 8108 8108 8115 8115 8115 8115 8115 8115 8115 8115 8115 8115 8115 8115 8115 8115 8115 8115 8115 8115 8115 8115 8115 8115 8115 8124 8124 8124 8124 8124 8124 8124 8124 8124
7203 7833 7851 8048 8280 8280 8280 8280 8280 8280 8280 8280 8280 8280 8280 8280 8280 8280 8280 8280 8280 8280 8280 8280 8280 8280 8280 8280 8280 8280 8280 8280 8280 8280 8280 8280 8280 8280 8280 8280
7663 7934 8013 8013 8013 8013 8013 8094 8094 8094 8094 8094 8094 8094 8094 8094 8094 8094 8094 8166 8166 8166 8166 8166 8166 8166 8166 8166 8166 8166 8166 8166 8166 8166 8166 8166 8166 8166 8166 8166
7445 7860 7860 7958 7958 8020 8020 8065 8065 8065 8065 8065 8065 8262 8262 8262 8262 8262 8262 8262 8262 8262 8262 8262 8262 8262 8262 8262 8262 8262 8262 8262 8262 8262 8262 8262 8262 8262 8262 8262
7233 7862 7910 8121 8175 8175 8175 8175 8175 8202 8202 8202 8202 8202 8202 8205 8224 8293 8293 8293 8293 8293 8293 8293 8316 8316 8316 8316 8316 8316 8316 8316 8316 8316 8316 8316 8316 8316 8316 8316
7883 8017 8069 8077 8126 8126 8126 8126 8126 8126 8140 8140 8154 8154 8210 8210 8210 8210 8210 8210 8210 8210 8320 8320 8320 8320 8320 8320 8320 8320 8320 8320 8320 8320 8320 8320 8320 8320 8320 8320
7734 7836 7938 7938 8245 8245 8245 8245 8245 8245 8245 8245 8245 8261 8261 8261 8261 8261 8261 8261 8261 8261 8261 8261 8261 8261 8261 8261 8261 8261 8261 8261 8261 8261 8261 8261 8261 8261 8261 8261
7455 7858 7858 7926 8025 8062 8062 8070 8114 8114 8114 8114 8114 8114 8114 8114 8114 8114 8114 8114 8114 8161 8161 8161 8161 8161 8161 8161 8161 8161 8161 8161 8161 8161 8204 8204 8204 8204 8204 8204
7456 7471 7858 7858 7993 8055 8173 8173 8173 8173 8198 8198 8198 8198 8198 8198 8198 8198 8198 8198 8198 8198 8242 8242 8242 8242 8242 8242 8242 8242 8242 8242 8242 8242 8242 8242 8242 8242 8242 8242
7711 7711 8008 8054 8127 8187 8187 8187 8207 8207 8207 8207 8207 8224 8224 8224 8224 8224 8224 8224 8224 8224 8228 8228 8228 8228 8228 8228 8228 8228 8228 8228 8228 8228 8228 8228 8228 8228 8228 8228
7339 8185 8185 8304 8304 8304 8336 8336 8336 8336 8336 8336 8336 8336 8336 8336 8336 8336 8336 8336 8336 8336 8336 8336 8336 8336 8336 8336 8336 8336 8336 8336 8336 8336 8336 8336 8336 8336 8336 8336
7290 8229 8229 8229 8229 8229 8229 8402 8402 8402 8402 8402 8402 8402 8402 8402 8402 8402 8402 8402 8402 8402 8402 8402 8402 8402 8402 8402 8402 8402 8402 8402 8402 8402 8402 8402 8402 8402 8402 8402
7820 7827 8024 8058 8058 8134 8134 8134 8134 8134 8134 8134 8134 8217 8217 8217 8217 8217 8217 8217 8217 8217 8217 8217 8217 8217 8217 8217 8217 8217 8217 8217 8217 8217 8217 8217 8217 8217 8217 8217
7062 7653 7743 8283 8283 8283 8283 8283 8283 8283 8283 8283 8283 8283 8283 8283 8283 8283 8283 8283 8283 8283 8283 8283 8283 8283 8283 8283 8283 8283 8283 8283 8283 8283 8283 8283 8283 8283 8283 8283
7569 7721 7939 7939 8051 8051 8051 8051 8051 8051 8051 8051 8051 8051 8051 8051 8222 8222 8222 8222 8222 8222 8222 8222 8222 8222 8222 8222 8222 8222 8222 8222 8222 8222 8222 8222 8222 8222 8222 8222
7901 7901 8075 8164 8164 8164 8164 8164 8164 8164 8164 8257 8257 8257 8257 8257 8257 8257 8257 8257 8257 8257 8257 8257 8257 8257 8257 8257 8257 8257 8257 8257 8257 8257 8257 8257 8257 8257 8257 8257
7448 7654 8076 8170 8170 8260 8260 8260 8260 8260 8260 8260 8260 8260 8260 8260 8260 8260 8260 8260 8260 8260 8260 8260 8260 8260 8260 8260 8260 8260 8260 8260 8260 8260 8260 8260 8260 8260 8260 8260
7522 8036 8200 8200 8200 8200 8200 8200 8200 8200 8200 8200 8200 8200 8217 8217 8217 8217 8217 8217 8217 8248 8342 8342 8342 8342 8342 8342 8342 8342 8342 8342 8342 8342 8342 8342 8342 8342 8342 8342
6626 7504 7826 8130 8130 8130 8130 8130 8130 8130 8130 8130 8130 8130 8130 8130 8130 8130 8130 8130 8130 8130 8130 8130 8130 8130 8130 8130 8130 8220 8220 8220 8220 8220 8220 8220 8220 8220 8220 8220
7128 8250 8250 8250 8250 8250 8250 8250 8250 8282 8282 8282 8282 8282 8282 8282 8282 8282 8282 8282 8282 8282 8282 8282 8282 8282 8282 8282 8282 8282 8282 8282 8282 8282 8282 8282 8282 8282 8282 8282
7287 7979 8196 8196 8196 8196 8196 8196 8196 8196 8196 8196 8431 8431 8431 8431 8431 8431 8431 8431 8431 8431 8431 8431 8431 8431 8431 8431 8431 8431 8431 8431 8431 8431 8431 8431 8431 8431 8431 8431
7411 7866 7866 7921 8060 8073 8073 8073 8073 8073 8107 8107 8204 8204 8204 8204 8204 8204 8204 8204 8204 8204 8204 8204 8204 8204 8204 8204 8204 8204 8204 8204 8204 8204 8204 8204 8204 8204 8204 8204
8004 8135 8135 8135 8135 8135 8135 8135 8135 8135 8135 8135 8259 8259 8259 8259 8259 8259 8259 8340 8340 8340 8340 8340 8340 8340 8340 8340 8340 8340 8340 8340 8340 8340 8340 8340 8340 8340 8340 8340
7830 8196 8196 8196 8196 8196 8196 8196 8196 8196 8196 8196 8196 8196 8196 8196 8196 8196 8256 8256 8256 8256 8256 8256 8304 8304 8304 8304 8304 8304 8304 8304 8304 8304 8304 8304 8304 8304 8304 8304
7006 7638 7744 7941 8121 8121 8121 8121 8121 8121 8121 8147 8147 8147 8147 8147 8147 8147 8147 8147 8147 8147 8147 8147 8162 8162 8162 8162 8162 8162 8162 8162 8162 8162 8162 8162 8167 8167 8167 8167

GA3 Results:
7837 8297 8330 8408 8408 8444 8450 8488 8488 8540 8540 8540 8552 8557 8557 8557 8557 8636 8636 8636 8636 8636 8636 8636 8636 8636 8636 8636 8636 8636 8636 8636 8636 8636 8636 8636 8636 8636 8640 8640
7964 8157 8348 8392 8406 8406 8464 8485 8485 8559 8559 8559 8559 8593 8593 8593 8593 8598 8598 8598 8598 8598 8598 8598 8598 8598 8598 8598 8598 8598 8598 8598 8598 8598 8598 8598 8598 8598 8598 8606
7613 8183 8295 8328 8443 8443 8496 8496 8496 8496 8496 8540 8540 8540 8540 8596 8596 8620 8620 8620 8620 8620 8620 8647 8647 8647 8647 8647 8647 8647 8647 8647 8647 8654 8654 8654 8654 8654 8654 8677
8105 8290 8415 8415 8415 8415 8488 8488 8539 8539 8539 8539 8539 8563 8563 8563 8563 8563 8563 8576 8576 8576 8576 8577 8577 8585 8585 8585 8585 8597 8648 8648 8648 8648 8648 8648 8648 8648 8648 8648
7965 8347 8413 8479 8508 8508 8508 8579 8614 8614 8614 8614 8614 8614 8614 8614 8614 8614 8614 8614 8614 8614 8614 8614 8614 8614 8614 8651 8651 8651 8651 8651 8651 8651 8651 8651 8651 8651 8651 8651
7675 8093 8224 8375 8387 8531 8531 8531 8531 8531 8594 8594 8594 8594 8594 8596 8596 8596 8596 8596 8596 8624 8624 8624 8624 8624 8624 8624 8624 8624 8624 8624 8624 8624 8624 8624 8624 8626 8626 8626
7658 7954 8184 8192 8364 8364 8392 8450 8450 8469 8474 8474 8474 8525 8525 8555 8555 8555 8555 8570 8570 8570 8570 8570 8570 8605 8605 8605 8605 8605 8605 8605 8609 8609 8609 8609 8610 8610 8610 8610
7797 8007 8256 8436 8440 8518 8518 8518 8518 8518 8518 8518 8518 8571 8572 8572 8582 8632 8632 8632 8632 8632 8632 8632 8632 8632 8632 8632 8632 8632 8632 8632 8632 8632 8685 8685 8685 8685 8685 8685
7741 8190 8298 8298 8359 8419 8420 8525 8525 8525 8525 8575 8575 8575 8575 8575 8604 8604 8604 8604 8604 8614 8638 8638 8638 8638 8638 8638 8638 8638 8638 8638 8638 8638 8638 8645 8645 8667 8667 8667
7547 8005 8175 8230 8302 8302 8302 8391 8391 8395 8405 8440 8440 8440 8485 8485 8485 8523 8551 8551 8551 8551 8551 8551 8551 8551 8626 8626 8626 8626 8626 8626 8626 8626 8626 8626 8626 8626 8629 8629
7618 8331 8352 8357 8429 8465 8465 8465 8498 8498 8522 8567 8567 8567 8567 8567 8567 8605 8605 8605 8605 8605 8654 8654 8654 8654 8654 8654 8654 8654 8678 8678 8678 8678 8678 8678 8678 8678 8678 8684
7377 7973 8066 8265 8317 8411 8411 8460 8460 8490 8490 8521 8521 8527 8527 8527 8539 8539 8551 8569 8569 8569 8569 8569 8569 8569 8579 8579 8579 8579 8579 8579 8579 8579 8615 8615 8631 8631 8631 8631
7480 8176 8281 8386 8386 8406 8440 8467 8593 8593 8593 8593 8601 8601 8601 8601 8603 8603 8603 8603 8603 8603 8603 8603 8603 8634 8634 8634 8634 8634 8640 8640 8640 8640 8640 8640 8640 8640 8640 8654
7990 8333 8454 8519 8519 8529 8529 8529 8535 8535 8535 8535 8562 8586 8586 8586 8586 8586 8586 8586 8586 8598 8598 8600 8600 8600 8600 8600 8600 8600 8600 8613 8676 8676 8676 8676 8676 8676 8676 8676
7879 8058 8172 8288 8452 8496 8568 8568 8579 8579 8579 8579 8579 8585 8585 8585 8585 8590 8590 8590 8590 8590 8590 8593 8595 8648 8648 8648 8648 8648 8648 8648 8648 8648 8692 8692 8692 8692 8692 8692
7963 8113 8337 8337 8405 8445 8540 8540 8540 8540 8540 8586 8586 8586 8586 8586 8586 8586 8586 8586 8586 8586 8664 8664 8664 8664 8664 8664 8664 8664 8664 8664 8664 8664 8664 8664 8664 8664 8664 8664
7767 8110 8325 8325 8535 8535 8593 8593 8593 8606 8606 8606 8613 8613 8613 8613 8613 8613 8613 8614 8614 8614 8614 8614 8614 8620 8620 8639 8639 8639 8661 8661 8661 8661 8661 8673 8673 8673 8673 8673
7884 8349 8349 8349 8349 8349 8357 8377 8440 8440 8440 8440 8440 8440 8515 8515 8515 8515 8515 8515 8546 8561 8561 8561 8562 8562 8562 8562 8577 8577 8577 8577 8577 8585 8585 8585 8585 8586 8586 8586
7759 8088 8298 8370 8370 8370 8409 8409 8426 8426 8426 8513 8513 8513 8513 8513 8560 8560 8560 8560 8620 8620 8620 8620 8620 8620 8620 8620 8620 8620 8669 8669 8669 8669 8669 8669 8669 8669 8669 8669
7763 8311 8311 8353 8353 8353 8395 8395 8499 8499 8565 8565 8565 8587 8587 8587 8587 8595 8595 8615 8615 8629 8629 8629 8629 8629 8629 8629 8629 8629 8632 8632 8632 8632 8632 8632 8632 8632 8632 8632
8099 8188 8301 8416 8416 8431 8515 8515 8515 8515 8523 8538 8538 8538 8538 8560 8560 8584 8584 8585 8585 8595 8615 8615 8615 8615 8615 8636 8636 8636 8683 8683 8683 8683 8683 8689 8689 8689 8689 8689
7800 8316 8536 8536 8536 8536 8536 8536 8536 8536 8536 8536 8543 8623 8623 8623 8623 8623 8623 8623 8623 8623 8623 8623 8623 8623 8623 8623 8623 8636 8636 8642 8642 8670 8670 8670 8670 8670 8670 8670
7978 8223 8343 8416 8505 8505 8505 8505 8505 8505 8505 8505 8524 8547 8547 8566 8566 8623 8623 8623 8623 8623 8623 8623 8623 8623 8650 8650 8650 8651 8651 8651 8651 8651 8651 8651 8651 8651 8651 8651
8078 8261 8261 8261 8261 8365 8383 8416 8458 8458 8562 8562 8579 8579 8579 8579 8579 8579 8611 8611 8611 8611 8616 8622 8622 8622 8646 8646 8646 8678 8678 8678 8678 8678 8678 8678 8678 8678 8678 8678
7907 8138 8342 8342 8388 8530 8530 8530 8530 8530 8530 8557 8557 8557 8557 8575 8578 8578 8578 8596 8596 8596 8596 8596 8596 8596 8596 8618 8618 8618 8618 8618 8618 8618 8618 8618 8618 8634 8634 8663
7801 8136 8274 8391 8391 8445 8512 8512 8512 8574 8574 8574 8574 8574 8574 8574 8649 8649 8649 8649 8649 8649 8649 8649 8649 8649 8649 8649 8649 8649 8649 8649 8649 8649 8649 8649 8649 8649 8649 8649
7639 8062 8212 8376 8376 8421 8448 8465 8546 8546 8546 8546 8546 8546 8574 8574 8593 8593 8616 8644 8644 8644 8644 8644 8644 8644 8644 8644 8644 8644 8644 8646 8698 8698 8698 8698 8698 8698 8698 8698
7798 8121 8215 8286 8346 8383 8406 8427 8427 8543 8543 8543 8543 8543 8543 8543 8543 8543 8543 8561 8561 8590 8590 8640 8640 8640 8640 8640 8640 8640 8640 8640 8640 8640 8640 8666 8666 8666 8666 8666
7912 8225 8330 8330 8354 8427 8427 8427 8459 8488 8490 8517 8517 8517 8567 8567 8567 8567 8567 8567 8567 8567 8567 8567 8567 8567 8570 8570 8570 8570 8570 8576 8576 8576 8576 8595 8595 8670 8670 8670
7993 8239 8269 8413 8413 8458 8491 8538 8538 8538 8538 8539 8541 8544 8588 8588 8588 8588 8588 8616 8616 8616 8616 8616 8616 8616 8616 8616 8616 8616 8616 8625 8659 8659 8659 8659 8659 8659 8659 8663

